0000000000000000
0001000000000000
0001000000001111
0001000001111100
0001100011100000
0001100010000000
0001100010000000
0000100010000000
0000100010000000
0000110010000000
0000110011111111
0000110000011111
0000010000000000
0000010000000000
0000010000000000
0000000000000000
